$ 1 0.000005 10.20027730826997 50 5 50 5e-11
v 160 224 160 112 0 0 40 5 0 0 0.5
r 160 112 272 112 0 200
r 272 112 272 176 0 100
r 272 224 384 224 0 100
r 272 224 160 224 0 400
v 384 224 384 112 0 0 40 5 0 0 0.5
r 384 112 272 112 0 200
i 384 304 160 304 0 0.01
w 160 304 160 224 0
w 384 304 384 224 0
x 203 86 233 89 4 24 R1
x 316 85 346 88 4 24 R2
x 107 176 136 179 4 24 E1
x 198 259 228 262 4 24 R3
x 231 157 261 160 4 24 R5
x 314 257 344 260 4 24 R4
x 409 175 438 178 4 24 E2
x 258 340 291 343 4 24 Ig1
370 272 176 272 224 1 0 0
403 16 80 144 144 0 0_64_7_4098_5_0.1_-1_1_0.15625_E1\sPower
x 13 60 117 63 4 24 E1\sPower
x 184 389 357 392 6 24 30-Jan-2022,\sz3
38 2 F1 0 0 1000 -1 R5
